24 100000
37204 69
30421 23
25829 1
28368 66
42034 62
24916 56
17777 5
77650 49
85046 22
52018 80
69167 22
9893 18
35715 26
97837 52
77719 48
75167 93
48129 88
92712 57
60052 97
85334 5
94601 10
38650 24
18201 7
9753 78
